FILENAME:   /home/mcs001/s132664/testsets/IP/miplib2017/chromaticindex512-7.mps.gz
SETTINGS:   settings_final_nopeek_norelabel_extend_norestarts
TIMELIMIT:  7200
OUTPUTNAME: final_miplib_symretope_if_extended_generating_set_cpx_v802__settings_final_nopeek_norelabel_extend_norestarts__2__
BINNAME:    bin/sbcs.linux.x86_64.gnu.opt.cpx
BASENAME:   chromaticindex512-7.mps.gz
SEED:       2
@01 /home/mcs001/s132664/testsets/IP/miplib2017/chromaticindex512-7.mps.gz ===========
@02 chromaticindex512-7.mps.gz
@03 1686656666
SCIP version 8.0.2 [precision: 8 byte] [memory: block] [mode: optimized] [LP solver: CPLEX 20.1.0.0] [GitHash: 5f0473c]
Copyright (C) 2002-2022 Konrad-Zuse-Zentrum fuer Informationstechnik Berlin (ZIB)

Symretope propagation methods - (c) Jasper van Doornmalen, Christopher Hojny.
[GitHash: 2fd0484]

reading parameter file <../settings/settings_final_nopeek_norelabel_extend_norestarts.set> ...

Changed settings:
limits/time = 7200
limits/restarts = 0
misc/usesymmetry = 1
randomization/randomseedshift = 2
constraints/orbisack/sepafreq = -1
constraints/symresack/sepafreq = -1
propagating/symmetry/addsymresacks = TRUE
propagating/symmetry/detectsubgroups = FALSE
propagating/symmetry/relabelsymretopes = 0
propagating/symmetry/extendgenerators = TRUE
propagating/symmetry/ofsymcomptiming = 0
constraints/symretope/sepafreq = -1
constraints/symretope/peek = FALSE


solving problem ...

original problem has 36864 variables (36864 bin, 0 int, 0 impl, 0 cont) and 33791 constraints
presolving:
(round 1, exhaustive) 0 del vars, 0 del conss, 0 add conss, 0 chg bounds, 0 chg sides, 0 chg coeffs, 33791 upgd conss, 0 impls, 33791 clqs
   (1.5s) probing: 51/36864 (0.1%) - 0 fixings, 0 aggregations, 0 implications, 0 bound changes
   (1.5s) probing aborted: 50/50 successive totally useless probings
   (1.5s) symmetry computation started: requiring (bin +, int +, cont +), (fixed: bin -, int -, cont -)
   (2.3s) symmetry computation finished: 4 generators found (max: 1500, log10 of symmetry group size: 1.7)
presolving (2 rounds: 2 fast, 2 medium, 2 exhaustive):
 0 deleted vars, 0 deleted constraints, 10 added constraints, 0 tightened bounds, 0 added holes, 0 changed sides, 0 changed coefficients
 0 implications, 33791 cliques
presolved problem has 36864 variables (36864 bin, 0 int, 0 impl, 0 cont) and 33801 constraints
  33791 constraints of type <setppc>
      8 constraints of type <orbisack>
      2 constraints of type <symretope>
transformed objective value is always integral (scale: 1)
Presolving Time: 2.42

 time | node  | left  |LP iter|LP it/n|mem/heur|mdpt |vars |cons |rows |cuts |sepa|confs|strbr|  dualbound   | primalbound  |  gap   | compl. 
 23.7s|     1 |     0 | 29938 |     - |   327M |   0 |  36k|  33k|  33k|   0 |  0 |  21 |   0 | 3.000000e+00 |      --      |    Inf | unknown
r25.9s|     1 |     0 | 29938 |     - |shifting|   0 |  36k|  33k|  33k|   0 |  0 |  22 |   0 | 3.000000e+00 | 4.000000e+00 |  33.33%| unknown
 41.0s|     1 |     0 | 30594 |     - |   347M |   0 |  36k|  33k|  33k|   5 |  1 |  22 |   0 | 3.000000e+00 | 4.000000e+00 |  33.33%| unknown
 56.0s|     1 |     0 | 31129 |     - |   352M |   0 |  36k|  33k|  33k|   9 |  2 |  23 |   0 | 3.000000e+00 | 4.000000e+00 |  33.33%| unknown
 70.5s|     1 |     0 | 31632 |     - |   357M |   0 |  36k|  33k|  33k|  14 |  3 |  24 |   0 | 3.000000e+00 | 4.000000e+00 |  33.33%| unknown
 85.8s|     1 |     0 | 32015 |     - |   363M |   0 |  36k|  33k|  33k|  18 |  4 |  25 |   0 | 3.000000e+00 | 4.000000e+00 |  33.33%| unknown
  101s|     1 |     0 | 32371 |     - |   367M |   0 |  36k|  33k|  33k|  24 |  5 |  26 |   0 | 3.000000e+00 | 4.000000e+00 |  33.33%| unknown
  116s|     1 |     0 | 33052 |     - |   372M |   0 |  36k|  33k|  33k|  28 |  6 |  27 |   0 | 3.000000e+00 | 4.000000e+00 |  33.33%| unknown
  132s|     1 |     0 | 33906 |     - |   375M |   0 |  36k|  33k|  33k|  32 |  7 |  28 |   0 | 3.000000e+00 | 4.000000e+00 |  33.33%| unknown
  148s|     1 |     0 | 34566 |     - |   380M |   0 |  36k|  33k|  33k|  35 |  8 |  29 |   0 | 3.000000e+00 | 4.000000e+00 |  33.33%| unknown
  163s|     1 |     0 | 35481 |     - |   386M |   0 |  36k|  33k|  33k|  37 |  9 |  30 |   0 | 3.000000e+00 | 4.000000e+00 |  33.33%| unknown
  178s|     1 |     0 | 36253 |     - |   391M |   0 |  36k|  33k|  33k|  40 | 10 |  31 |   0 | 3.000000e+00 | 4.000000e+00 |  33.33%| unknown
  195s|     1 |     0 | 36746 |     - |   397M |   0 |  36k|  33k|  33k|  46 | 11 |  32 |   0 | 3.000000e+00 | 4.000000e+00 |  33.33%| unknown
  263s|     1 |     2 | 49982 |     - |   399M |   0 |  36k|  33k|  33k|  46 | 11 |  37 |  23 | 3.000000e+00 | 4.000000e+00 |  33.33%| unknown
  383s|   100 |    61 |101707 | 656.2 |   427M |  21 |  36k|  34k|  33k| 129 |  1 | 385 |  23 | 3.000000e+00 | 4.000000e+00 |  33.33%| unknown
 time | node  | left  |LP iter|LP it/n|mem/heur|mdpt |vars |cons |rows |cuts |sepa|confs|strbr|  dualbound   | primalbound  |  gap   | compl. 
  443s|   200 |     9 |128633 | 461.7 |   438M |  23 |  36k|  28k|  33k| 441 |  1 |1006 |  23 | 3.000000e+00 | 4.000000e+00 |  33.33%|  59.17%

SCIP Status        : problem is solved [optimal solution found]
Solving Time (sec) : 587.43
Solving Nodes      : 275
Primal Bound       : +4.00000000000000e+00 (1 solutions)
Dual Bound         : +4.00000000000000e+00
Gap                : 0.00 %
SCIP Status        : problem is solved [optimal solution found]
Total Time         :     587.69
  solving          :     587.43
  presolving       :       2.42 (included in solving)
  reading          :       0.26
  copying          :       0.73 (6 #copies) (minimal 0.11, maximal 0.13, average 0.12)
Original Problem   :
  Problem name     : chromaticindex512-7
  Variables        : 36864 (36864 binary, 0 integer, 0 implicit integer, 0 continuous)
  Constraints      : 33791 initial, 33791 maximal
  Objective        : minimize, 4 non-zeros (abs.min = 1, abs.max = 1)
Presolved Problem  :
  Problem name     : t_chromaticindex512-7
  Variables        : 36864 (36864 binary, 0 integer, 0 implicit integer, 0 continuous)
  Constraints      : 33801 initial, 34779 maximal
  Objective        : minimize, 4 non-zeros (abs.min = 1, abs.max = 1)
  Nonzeros         : 338040 constraint, 82914 clique table
Presolvers         :   ExecTime  SetupTime  Calls  FixedVars   AggrVars   ChgTypes  ChgBounds   AddHoles    DelCons    AddCons   ChgSides   ChgCoefs
  boundshift       :       0.00       0.00      0          0          0          0          0          0          0          0          0          0
  convertinttobin  :       0.00       0.00      0          0          0          0          0          0          0          0          0          0
  domcol           :       0.06       0.00      1          0          0          0          0          0          0          0          0          0
  dualagg          :       0.00       0.00      0          0          0          0          0          0          0          0          0          0
  dualcomp         :       0.00       0.00      0          0          0          0          0          0          0          0          0          0
  dualinfer        :       0.00       0.00      0          0          0          0          0          0          0          0          0          0
  dualsparsify     :       0.07       0.00      1          0          0          0          0          0          0          0          0          0
  gateextraction   :       0.00       0.00      0          0          0          0          0          0          0          0          0          0
  implics          :       0.00       0.00      2          0          0          0          0          0          0          0          0          0
  inttobinary      :       0.00       0.00      0          0          0          0          0          0          0          0          0          0
  qpkktref         :       0.00       0.00      0          0          0          0          0          0          0          0          0          0
  redvub           :       0.00       0.00      0          0          0          0          0          0          0          0          0          0
  sparsify         :       0.09       0.00      1          0          0          0          0          0          0          0          0          0
  stuffing         :       0.00       0.00      0          0          0          0          0          0          0          0          0          0
  trivial          :       0.00       0.00      2          0          0          0          0          0          0          0          0          0
  tworowbnd        :       0.00       0.00      0          0          0          0          0          0          0          0          0          0
  dualfix          :       0.00       0.00      2          0          0          0          0          0          0          0          0          0
  genvbounds       :       0.00       0.00      0          0          0          0          0          0          0          0          0          0
  probing          :       0.68       0.00      1          0          0          0          0          0          0          0          0          0
  pseudoobj        :       0.00       0.00      0          0          0          0          0          0          0          0          0          0
  symmetry         :       0.91       0.00      1          0          0          0          0          0          0         10          0          0
  vbounds          :       0.04       0.00      1          0          0          0          0          0          0          0          0          0
  knapsack         :       0.00       0.00      0          0          0          0          0          0          0          0          0          0
  setppc           :       0.11       0.01      3          0          0          0          0          0          0          0          0          0
  linear           :       0.21       0.04      2          0          0          0          0          0          0          0          0          0
  orbisack         :       0.00       0.00      0          0          0          0          0          0          0          0          0          0
  symretope        :       0.00       0.00      0          0          0          0          0          0          0          0          0          0
  logicor          :       0.00       0.00      0          0          0          0          0          0          0          0          0          0
  benders          :       0.00       0.00      0          0          0          0          0          0          0          0          0          0
  components       :       0.10       0.00      1          0          0          0          0          0          0          0          0          0
  root node        :          -          -      -       9230          -          -       9230          -          -          -          -          -
Constraints        :     Number  MaxNumber  #Separate #Propagate    #EnfoLP    #EnfoRelax  #EnfoPS    #Check   #ResProp    Cutoffs    DomReds       Cuts    Applied      Conss   Children
  benderslp        :          0          0          0          0        217          0          0         48          0          0          0          0          0          0          0
  integral         :          0          0          0          0        217          0          0         48          0          0          0          0          0          0        434
  knapsack         :          0+         4          0      44287          0          0          0          0          3          4          0          0          0          0          0
  setppc           :      33791+     33792         11     129575          0          0          0         43       9908        361     121388          0          0          0          0
  linear           :          0+         4          0      42098          0          0          0          0          3          0          0          0          0          0          0
  orbisack         :          8          8          0         37          0          0          0          1         15          3         10          0          0          0          0
  symretope        :          2          2          0        122          0          0          0          1          0         12          0          0          0          0          0
  logicor          :          0+       970         11       4404          0          0          0          0        887         24         66          0          0          0          0
  benders          :          0          0          0          0          0          0          0          2          0          0          0          0          0          0          0
  countsols        :          0          0          0          0          0          0          0          2          0          0          0          0          0          0          0
  components       :          0          0          0          0          0          0          0          0          0          0          0          0          0          0          0
Constraint Timings :  TotalTime  SetupTime   Separate  Propagate     EnfoLP     EnfoPS     EnfoRelax   Check    ResProp    SB-Prop
  benderslp        :       0.00       0.00       0.00       0.00       0.00       0.00       0.00       0.00       0.00       0.00
  integral         :      27.09       0.00       0.00       0.00      27.07       0.00       0.00       0.02       0.00       0.00
  knapsack         :       0.00       0.00       0.00       0.00       0.00       0.00       0.00       0.00       0.00       0.00
  setppc           :       1.40       0.01       0.07       1.25       0.00       0.00       0.00       0.02       0.01       0.04
  linear           :       0.05       0.04       0.00       0.00       0.00       0.00       0.00       0.00       0.00       0.00
  orbisack         :       0.02       0.00       0.00       0.02       0.00       0.00       0.00       0.00       0.00       0.00
  symretope        :       0.01       0.00       0.00       0.01       0.00       0.00       0.00       0.00       0.00       0.00
  logicor          :       0.04       0.00       0.00       0.03       0.00       0.00       0.00       0.00       0.00       0.00
  benders          :       0.00       0.00       0.00       0.00       0.00       0.00       0.00       0.00       0.00       0.00
  countsols        :       0.00       0.00       0.00       0.00       0.00       0.00       0.00       0.00       0.00       0.00
  components       :       0.01       0.00       0.00       0.01       0.00       0.00       0.00       0.00       0.00       0.00
Propagators        : #Propagate   #ResProp    Cutoffs    DomReds
  dualfix          :          2          0          0          0
  genvbounds       :          0          0          0          0
  nlobbt           :          0          0          0          0
  obbt             :          0          0          0          0
  probing          :          0          0          0          0
  pseudoobj        :       1134         57          0          3
  redcost          :         13          0          0          0
  rootredcost      :          0          0          0          0
  symmetry         :          0          0          0          0
  vbounds          :      57860          0          0          0
Propagator Timings :  TotalTime  SetupTime   Presolve  Propagate    ResProp    SB-Prop
  dualfix          :       0.01       0.00       0.00       0.00       0.00       0.00
  genvbounds       :       0.01       0.00       0.00       0.01       0.00       0.00
  nlobbt           :       0.00       0.00       0.00       0.00       0.00       0.00
  obbt             :       0.00       0.00       0.00       0.00       0.00       0.00
  probing          :       0.68       0.00       0.68       0.00       0.00       0.00
  pseudoobj        :       0.20       0.00       0.00       0.20       0.00       0.00
  redcost          :       0.04       0.00       0.00       0.04       0.00       0.00
  rootredcost      :       0.01       0.00       0.00       0.01       0.00       0.00
  symmetry         :       0.92       0.00       0.91       0.01       0.00       0.00
  vbounds          :       0.24       0.00       0.04       0.20       0.00       0.00
Orbital fixing     :
  vars fixed to 0  :          0
  vars fixed to 1  :          0
Conflict Analysis  :       Time      Calls    Success    DomReds  Conflicts   Literals    Reconvs ReconvLits   Dualrays   Nonzeros   LP Iters   (pool size: [10000,10000])
  propagation      :       0.01        402        392          -       1153       10.2         78       11.1          -          -          -
  infeasible LP    :       0.00          0          0          -          0        0.0          0        0.0          0        0.0          0
  bound exceed. LP :       0.08         11         11          -         34        9.8          1       16.0         11       11.6          0
  strong branching :       0.00          0          0          -          0        0.0          0        0.0          -          -          0
  pseudo solution  :       0.00          0          0          -          0        0.0          0        0.0          -          -          -
  applied globally :       0.04          -          -          0       1055        8.2          -          -         11          -          -
  applied locally  :          -          -          -          0          0        0.0          -          -          0          -          -
Separators         :   ExecTime  SetupTime      Calls  RootCalls    Cutoffs    DomReds  FoundCuts ViaPoolAdd  DirectAdd    Applied ViaPoolApp  DirectApp      Conss
  cut pool         :       0.16          -        103         21          -          -       3526       5009          -          -          -          -          -    (maximal pool size:       3526)
  aggregation      :       0.58       0.00         39         11          0          0          0          0          0          0          0          0          0
  > cmir           :          -          -          -          -          -          -          -          0          0          0          0          0          -
  > flowcover      :          -          -          -          -          -          -          -          0          0          0          0          0          -
  > knapsackcover  :          -          -          -          -          -          -          -          0          0          0          0          0          -
  cgmip            :       0.00       0.00          0          0          0          0          0          0          0          0          0          0          0
  clique           :     131.26       0.00         11         11          0          0          0          0          0          0          0          0          0
  closecuts        :       0.00       0.00          0          0          0          0          0          0          0          0          0          0          0
  convexproj       :       0.00       0.00          0          0          0          0          0          0          0          0          0          0          0
  disjunctive      :       0.00       0.00          0          0          0          0          0          0          0          0          0          0          0
  eccuts           :       0.00       0.00          0          0          0          0          0          0          0          0          0          0          0
  gauge            :       0.00       0.00          0          0          0          0          0          0          0          0          0          0          0
  gomory           :       1.31       0.00         38         10          0          0       3410       4219          0        239        239          0          0
  > gomorymi       :          -          -          -          -          -          -          -        466          0          5          5          0          -
  > strongcg       :          -          -          -          -          -          -          -       3753          0        234        234          0          -
  impliedbounds    :       0.11       0.00         39         11          0          5          2          2          0          2          2          0          0
  interminor       :       0.00       0.00          0          0          0          0          0          0          0          0          0          0          0
  intobj           :       0.00       0.00          0          0          0          0          0          0          0          0          0          0          0
  mcf              :       0.04       0.00          1          1          0          0          0          0          0          0          0          0          0
  minor            :       0.00       0.00          0          0          0          0          0          0          0          0          0          0          0
  mixing           :       0.00       0.00          0          0          0          0          0          0          0          0          0          0          0
  oddcycle         :       0.00       0.00          0          0          0          0          0          0          0          0          0          0          0
  rapidlearning    :       0.14       0.00          0          0          0          0          0          0          0          0          0          0          0
  rlt              :       0.00       0.00         10         10          0          0          0          0          0          0          0          0          0
  zerohalf         :      36.46       0.00         39         11          0          0        114        788          0        338        338          0          0
Cutselectors       :   ExecTime  SetupTime      Calls  RootCalls   Selected     Forced   Filtered  RootSelec   RootForc   RootFilt 
  hybrid           :       0.00       0.00         62         11        579          0       4430         46          0       2930
Pricers            :   ExecTime  SetupTime      Calls       Vars
  problem variables:       0.00          -          0          0
Branching Rules    :   ExecTime  SetupTime   BranchLP  BranchExt   BranchPS    Cutoffs    DomReds       Cuts      Conss   Children
  allfullstrong    :       0.00       0.00          0          0          0          0          0          0          0          0
  cloud            :       0.00       0.00          0          0          0          0          0          0          0          0
  distribution     :       0.00       0.00          0          0          0          0          0          0          0          0
  fullstrong       :       0.00       0.00          0          0          0          0          0          0          0          0
  inference        :       0.00       0.00          0          0          0          0          0          0          0          0
  leastinf         :       0.00       0.00          0          0          0          0          0          0          0          0
  lookahead        :       0.00       0.00          0          0          0          0          0          0          0          0
  mostinf          :       0.00       0.00          0          0          0          0          0          0          0          0
  multaggr         :       0.00       0.00          0          0          0          0          0          0          0          0
  nodereopt        :       0.00       0.00          0          0          0          0          0          0          0          0
  pscost           :       0.00       0.00          0          0          0          0          0          0          0          0
  random           :       0.00       0.00          0          0          0          0          0          0          0          0
  relpscost        :      27.07       0.00        217          0          0          0          0          0          0        434
  vanillafullstrong:       0.00       0.00          0          0          0          0          0          0          0          0
Primal Heuristics  :   ExecTime  SetupTime      Calls      Found       Best
  LP solutions     :       0.00          -          -          0          0
  relax solutions  :       0.00          -          -          0          0
  pseudo solutions :       0.00          -          -          0          0
  strong branching :       0.00          -          -          0          0
  actconsdiving    :       0.00       0.00          0          0          0
  adaptivediving   :      11.03       0.00         21          0          0
  alns             :       1.95       0.00          5          0          0
  bound            :       0.00       0.00          0          0          0
  clique           :       0.26       0.00          1          0          0
  coefdiving       :       0.00       0.00          0          0          0
  completesol      :       0.00       0.00          0          0          0
  conflictdiving   :       5.14       0.00         17          0          0
  crossover        :       0.00       0.00          0          0          0
  dins             :       0.00       0.00          0          0          0
  distributiondivin:       1.80       0.00         11          0          0
  dps              :       0.00       0.00          0          0          0
  dualval          :       0.00       0.00          0          0          0
  farkasdiving     :       0.00       0.00          0          0          0
  feaspump         :      39.22       0.00          1          0          0
  fixandinfer      :       0.00       0.00          0          0          0
  fracdiving       :       6.23       0.00         11          0          0
  gins             :       0.08       0.00          0          0          0
  guideddiving     :      13.81       0.00         14          0          0
  indicator        :       0.00       0.00          0          0          0
  intdiving        :       0.00       0.00          0          0          0
  intshifting      :       0.00       0.00          0          0          0
  linesearchdiving :      11.32       0.00         13          0          0
  localbranching   :       0.00       0.00          0          0          0
  locks            :       0.03       0.00          1          0          0
  lpface           :       0.03       0.00          0          0          0
  mpec             :       0.00       0.00          0          0          0
  multistart       :       0.00       0.00          0          0          0
  mutation         :       0.00       0.00          0          0          0
  nlpdiving        :       0.00       0.00          0          0          0
  objpscostdiving  :     126.43       0.00          2          0          0
  octane           :       0.00       0.00          0          0          0
  ofins            :       0.00       0.00          0          0          0
  oneopt           :       0.02       0.00          1          0          0
  padm             :       0.00       0.00          0          0          0
  proximity        :       0.00       0.00          0          0          0
  pscostdiving     :       1.02       0.00         16          0          0
  randrounding     :       0.87       0.00         51          0          0
  rens             :       0.00       0.00          0          0          0
  reoptsols        :       0.00       0.00          0          0          0
  repair           :       0.00       0.00          0          0          0
  rins             :       0.47       0.00          1          0          0
  rootsoldiving    :      31.10       0.00          1          0          0
  rounding         :       0.64       0.00        191          0          0
  shiftandpropagate:       0.21       0.00          1          0          0
  shifting         :       4.50       0.00         90          1          1
  simplerounding   :       0.00       0.00        279          0          0
  subnlp           :       0.00       0.00          0          0          0
  trivial          :       0.06       0.00          2          0          0
  trivialnegation  :       0.00       0.00          0          0          0
  trustregion      :       0.00       0.00          0          0          0
  trysol           :       0.00       0.00          0          0          0
  twoopt           :       0.00       0.00          0          0          0
  undercover       :       0.00       0.00          0          0          0
  vbounds          :       1.32       0.00          1          0          0
  veclendiving     :       6.88       0.00          9          0          0
  zeroobj          :       0.00       0.00          0          0          0
  zirounding       :       0.60       0.00        217          0          0
  other solutions  :          -          -          -          0          -
LP                 :       Time      Calls Iterations  Iter/call   Iter/sec  Time-0-It Calls-0-It    ItLimit
  primal LP        :       3.61         10          0       0.00       0.00       3.61         10
  dual LP          :     114.55        325     103680     320.00     905.08       0.01          1
  lex dual LP      :       0.00          0          0       0.00          -
  barrier LP       :       0.00          0          0       0.00          -       0.00          0
  resolve instable :       0.00          0          0       0.00          -
  diving/probing LP:     195.28        900      45608      50.68     233.56
  strong branching :      24.89         23      17925     779.35     720.15          -          -         21
    (at root node) :          -         23      17925     779.35          -
  conflict analysis:       0.00          0          0       0.00          -
B&B Tree           :
  number of runs   :          1
  nodes            :        275 (217 internal, 58 leaves)
  feasible leaves  :          0
  infeas. leaves   :         13
  objective leaves :         45
  nodes (total)    :        275 (217 internal, 58 leaves)
  nodes left       :          0
  max depth        :         23
  max depth (total):         23
  backtracks       :         86 (31.3%)
  early backtracks :          0 (0.0%)
  nodes exc. ref.  :          0 (0.0%)
  delayed cutoffs  :        157
  repropagations   :        139 (27777 domain reductions, 8 cutoffs)
  avg switch length:       3.63
  switching time   :       3.34
Root Node          :
  First LP value   : +3.00000000000000e+00
  First LP Iters   :      29938 (1574.46 Iter/sec)
  First LP Time    :      19.01
  Final Dual Bound : +3.00000000000000e+00
  Final Root Iters :      36746
  Root LP Estimate : +3.00435744481606e+00
Solution           :
  Solutions found  :          1 (1 improvements)
  First Solution   : +4.00000000000000e+00   (in run 1, after 1 nodes, 23.79 seconds, depth 0, found by <shifting>)
  Gap First Sol.   :      33.33 %
  Gap Last Sol.    :      33.33 %
  Primal Bound     : +4.00000000000000e+00   (in run 1, after 1 nodes, 23.79 seconds, depth 0, found by <shifting>)
  Dual Bound       : +4.00000000000000e+00
  Gap              :       0.00 %
Integrals          :      Total       Avg%
  primal-dual      :   16626.43      28.30
  primal-ref       :          -          - (not evaluated)
  dual-ref         :          -          - (not evaluated)
written solution information to file <results/final_miplib_symretope_if_extended_generating_set_cpx_v802__settings_final_nopeek_norelabel_extend_norestarts__2__chromaticindex512-7.mps.gz.sol>
@04 1686657254
